
Gurobi 9.5.1 (win64) logging started Fri Apr  1 13:59:00 2022

Set parameter LogFile to value "SolvingLog.log"
Gurobi Optimizer version 9.5.1 build v9.5.1rc2 (win64)
Thread count: 6 physical cores, 12 logical processors, using up to 12 threads
Optimize a model with 267875 rows, 262650 columns and 2285350 nonzeros
Model fingerprint: 0x047006f3
Variable types: 2550 continuous, 260100 integer (260100 binary)
Coefficient statistics:
  Matrix range     [1e+00, 1e+04]
  Objective range  [1e+00, 1e+02]
  Bounds range     [1e+00, 1e+00]
  RHS range        [1e+00, 1e+04]
Presolve removed 37900 rows and 35325 columns (presolve time = 5s) ...
Presolve removed 63319 rows and 60344 columns (presolve time = 10s) ...
Presolve removed 71541 rows and 68566 columns
Presolve time: 14.12s
Presolved: 196334 rows, 194084 columns, 1623548 nonzeros
Variable types: 2300 continuous, 191784 integer (191784 binary)

Deterministic concurrent LP optimizer: primal and dual simplex
Showing first log only...


Root simplex log...

Iteration    Objective       Primal Inf.    Dual Inf.      Time
       0    3.1847458e+03   2.709584e+03   6.300950e+10     18s
   12853    3.1752163e+03   1.937378e+02   3.253569e+09     20s
   34930    3.2399209e+03   2.393727e+00   1.691565e+09     25s
   43606    2.8539758e+03   0.000000e+00   2.484236e+05     30s
   54210    2.3383466e+03   0.000000e+00   8.961177e+04     35s
   62645    2.1327852e+03   0.000000e+00   2.145833e+05     40s
   67706    2.0189599e+03   0.000000e+00   1.513700e+04     45s
Concurrent spin time: 0.00s

Solved with dual simplex

Root relaxation: objective 6.844962e+02, 17090 iterations, 29.49 seconds (24.56 work units)

    Nodes    |    Current Node    |     Objective Bounds      |     Work
 Expl Unexpl |  Obj  Depth IntInf | Incumbent    BestBd   Gap | It/Node Time

     0     0  711.91896    0  397          -  711.91896      -     -  101s
     0     0  712.79200    0  304          -  712.79200      -     -  120s
     0     0  820.60720    0   77          -  820.60720      -     -  150s
H    0     0                    1035.9791095  820.60720  20.8%     -  151s
     0     0  820.60720    0   97 1035.97911  820.60720  20.8%     -  154s
H    0     0                     828.9368669  820.60720  1.00%     -  159s
     0     0  826.69952    0   48  828.93687  826.69952  0.27%     -  161s

Cutting planes:
  Implied bound: 14
  MIR: 7
  StrongCG: 2
  RLT: 22
  Relax-and-lift: 5

Explored 1 nodes (50552 simplex iterations) in 161.41 seconds (145.92 work units)
Thread count was 12 (of 12 available processors)

Solution count 2: 828.937 1035.98 

Optimal solution found (tolerance 1.00e-02)
Best objective 8.289368669428e+02, best bound 8.266995160779e+02, gap 0.2699%
